c Line Graph - Bad case for Dinics
c 256 vertices
p max 256 509
n 1 s
n 256 t
a 1 256 1
a 1 2 256
a 2 256 1
a 2 3 256
a 3 256 1
a 3 4 256
a 4 256 1
a 4 5 256
a 5 256 1
a 5 6 256
a 6 256 1
a 6 7 256
a 7 256 1
a 7 8 256
a 8 256 1
a 8 9 256
a 9 256 1
a 9 10 256
a 10 256 1
a 10 11 256
a 11 256 1
a 11 12 256
a 12 256 1
a 12 13 256
a 13 256 1
a 13 14 256
a 14 256 1
a 14 15 256
a 15 256 1
a 15 16 256
a 16 256 1
a 16 17 256
a 17 256 1
a 17 18 256
a 18 256 1
a 18 19 256
a 19 256 1
a 19 20 256
a 20 256 1
a 20 21 256
a 21 256 1
a 21 22 256
a 22 256 1
a 22 23 256
a 23 256 1
a 23 24 256
a 24 256 1
a 24 25 256
a 25 256 1
a 25 26 256
a 26 256 1
a 26 27 256
a 27 256 1
a 27 28 256
a 28 256 1
a 28 29 256
a 29 256 1
a 29 30 256
a 30 256 1
a 30 31 256
a 31 256 1
a 31 32 256
a 32 256 1
a 32 33 256
a 33 256 1
a 33 34 256
a 34 256 1
a 34 35 256
a 35 256 1
a 35 36 256
a 36 256 1
a 36 37 256
a 37 256 1
a 37 38 256
a 38 256 1
a 38 39 256
a 39 256 1
a 39 40 256
a 40 256 1
a 40 41 256
a 41 256 1
a 41 42 256
a 42 256 1
a 42 43 256
a 43 256 1
a 43 44 256
a 44 256 1
a 44 45 256
a 45 256 1
a 45 46 256
a 46 256 1
a 46 47 256
a 47 256 1
a 47 48 256
a 48 256 1
a 48 49 256
a 49 256 1
a 49 50 256
a 50 256 1
a 50 51 256
a 51 256 1
a 51 52 256
a 52 256 1
a 52 53 256
a 53 256 1
a 53 54 256
a 54 256 1
a 54 55 256
a 55 256 1
a 55 56 256
a 56 256 1
a 56 57 256
a 57 256 1
a 57 58 256
a 58 256 1
a 58 59 256
a 59 256 1
a 59 60 256
a 60 256 1
a 60 61 256
a 61 256 1
a 61 62 256
a 62 256 1
a 62 63 256
a 63 256 1
a 63 64 256
a 64 256 1
a 64 65 256
a 65 256 1
a 65 66 256
a 66 256 1
a 66 67 256
a 67 256 1
a 67 68 256
a 68 256 1
a 68 69 256
a 69 256 1
a 69 70 256
a 70 256 1
a 70 71 256
a 71 256 1
a 71 72 256
a 72 256 1
a 72 73 256
a 73 256 1
a 73 74 256
a 74 256 1
a 74 75 256
a 75 256 1
a 75 76 256
a 76 256 1
a 76 77 256
a 77 256 1
a 77 78 256
a 78 256 1
a 78 79 256
a 79 256 1
a 79 80 256
a 80 256 1
a 80 81 256
a 81 256 1
a 81 82 256
a 82 256 1
a 82 83 256
a 83 256 1
a 83 84 256
a 84 256 1
a 84 85 256
a 85 256 1
a 85 86 256
a 86 256 1
a 86 87 256
a 87 256 1
a 87 88 256
a 88 256 1
a 88 89 256
a 89 256 1
a 89 90 256
a 90 256 1
a 90 91 256
a 91 256 1
a 91 92 256
a 92 256 1
a 92 93 256
a 93 256 1
a 93 94 256
a 94 256 1
a 94 95 256
a 95 256 1
a 95 96 256
a 96 256 1
a 96 97 256
a 97 256 1
a 97 98 256
a 98 256 1
a 98 99 256
a 99 256 1
a 99 100 256
a 100 256 1
a 100 101 256
a 101 256 1
a 101 102 256
a 102 256 1
a 102 103 256
a 103 256 1
a 103 104 256
a 104 256 1
a 104 105 256
a 105 256 1
a 105 106 256
a 106 256 1
a 106 107 256
a 107 256 1
a 107 108 256
a 108 256 1
a 108 109 256
a 109 256 1
a 109 110 256
a 110 256 1
a 110 111 256
a 111 256 1
a 111 112 256
a 112 256 1
a 112 113 256
a 113 256 1
a 113 114 256
a 114 256 1
a 114 115 256
a 115 256 1
a 115 116 256
a 116 256 1
a 116 117 256
a 117 256 1
a 117 118 256
a 118 256 1
a 118 119 256
a 119 256 1
a 119 120 256
a 120 256 1
a 120 121 256
a 121 256 1
a 121 122 256
a 122 256 1
a 122 123 256
a 123 256 1
a 123 124 256
a 124 256 1
a 124 125 256
a 125 256 1
a 125 126 256
a 126 256 1
a 126 127 256
a 127 256 1
a 127 128 256
a 128 256 1
a 128 129 256
a 129 256 1
a 129 130 256
a 130 256 1
a 130 131 256
a 131 256 1
a 131 132 256
a 132 256 1
a 132 133 256
a 133 256 1
a 133 134 256
a 134 256 1
a 134 135 256
a 135 256 1
a 135 136 256
a 136 256 1
a 136 137 256
a 137 256 1
a 137 138 256
a 138 256 1
a 138 139 256
a 139 256 1
a 139 140 256
a 140 256 1
a 140 141 256
a 141 256 1
a 141 142 256
a 142 256 1
a 142 143 256
a 143 256 1
a 143 144 256
a 144 256 1
a 144 145 256
a 145 256 1
a 145 146 256
a 146 256 1
a 146 147 256
a 147 256 1
a 147 148 256
a 148 256 1
a 148 149 256
a 149 256 1
a 149 150 256
a 150 256 1
a 150 151 256
a 151 256 1
a 151 152 256
a 152 256 1
a 152 153 256
a 153 256 1
a 153 154 256
a 154 256 1
a 154 155 256
a 155 256 1
a 155 156 256
a 156 256 1
a 156 157 256
a 157 256 1
a 157 158 256
a 158 256 1
a 158 159 256
a 159 256 1
a 159 160 256
a 160 256 1
a 160 161 256
a 161 256 1
a 161 162 256
a 162 256 1
a 162 163 256
a 163 256 1
a 163 164 256
a 164 256 1
a 164 165 256
a 165 256 1
a 165 166 256
a 166 256 1
a 166 167 256
a 167 256 1
a 167 168 256
a 168 256 1
a 168 169 256
a 169 256 1
a 169 170 256
a 170 256 1
a 170 171 256
a 171 256 1
a 171 172 256
a 172 256 1
a 172 173 256
a 173 256 1
a 173 174 256
a 174 256 1
a 174 175 256
a 175 256 1
a 175 176 256
a 176 256 1
a 176 177 256
a 177 256 1
a 177 178 256
a 178 256 1
a 178 179 256
a 179 256 1
a 179 180 256
a 180 256 1
a 180 181 256
a 181 256 1
a 181 182 256
a 182 256 1
a 182 183 256
a 183 256 1
a 183 184 256
a 184 256 1
a 184 185 256
a 185 256 1
a 185 186 256
a 186 256 1
a 186 187 256
a 187 256 1
a 187 188 256
a 188 256 1
a 188 189 256
a 189 256 1
a 189 190 256
a 190 256 1
a 190 191 256
a 191 256 1
a 191 192 256
a 192 256 1
a 192 193 256
a 193 256 1
a 193 194 256
a 194 256 1
a 194 195 256
a 195 256 1
a 195 196 256
a 196 256 1
a 196 197 256
a 197 256 1
a 197 198 256
a 198 256 1
a 198 199 256
a 199 256 1
a 199 200 256
a 200 256 1
a 200 201 256
a 201 256 1
a 201 202 256
a 202 256 1
a 202 203 256
a 203 256 1
a 203 204 256
a 204 256 1
a 204 205 256
a 205 256 1
a 205 206 256
a 206 256 1
a 206 207 256
a 207 256 1
a 207 208 256
a 208 256 1
a 208 209 256
a 209 256 1
a 209 210 256
a 210 256 1
a 210 211 256
a 211 256 1
a 211 212 256
a 212 256 1
a 212 213 256
a 213 256 1
a 213 214 256
a 214 256 1
a 214 215 256
a 215 256 1
a 215 216 256
a 216 256 1
a 216 217 256
a 217 256 1
a 217 218 256
a 218 256 1
a 218 219 256
a 219 256 1
a 219 220 256
a 220 256 1
a 220 221 256
a 221 256 1
a 221 222 256
a 222 256 1
a 222 223 256
a 223 256 1
a 223 224 256
a 224 256 1
a 224 225 256
a 225 256 1
a 225 226 256
a 226 256 1
a 226 227 256
a 227 256 1
a 227 228 256
a 228 256 1
a 228 229 256
a 229 256 1
a 229 230 256
a 230 256 1
a 230 231 256
a 231 256 1
a 231 232 256
a 232 256 1
a 232 233 256
a 233 256 1
a 233 234 256
a 234 256 1
a 234 235 256
a 235 256 1
a 235 236 256
a 236 256 1
a 236 237 256
a 237 256 1
a 237 238 256
a 238 256 1
a 238 239 256
a 239 256 1
a 239 240 256
a 240 256 1
a 240 241 256
a 241 256 1
a 241 242 256
a 242 256 1
a 242 243 256
a 243 256 1
a 243 244 256
a 244 256 1
a 244 245 256
a 245 256 1
a 245 246 256
a 246 256 1
a 246 247 256
a 247 256 1
a 247 248 256
a 248 256 1
a 248 249 256
a 249 256 1
a 249 250 256
a 250 256 1
a 250 251 256
a 251 256 1
a 251 252 256
a 252 256 1
a 252 253 256
a 253 256 1
a 253 254 256
a 254 256 1
a 254 255 256
a 255 256 256
